952982
0,3,65,94,21,51,64,53,97,22,10,27,45,33,70,89,58,23,42,18,11,93,25,16,39,78,28,50,77,24,72,83,91,38,6,13,80,85,44,60,66,81,57,15,14,82,86,47,36,12,62,67,98,79,37,75,87,49,35,71,90,52,7,88,84,2,4,63,1,26,34,96,41,43,54,48,92,61,30,59,19,20,95,29,76,17,40,5,74,68,55,9,31,73,69,32,8,46,56,0